
  23    0


   0  13 2 3 4 5 6 9 10 11 18 19 20 21 22 
   6   4 16 14 13 12 
   4   2 16 7 
   3   2 15 8 
   3   2 17 15 
   1   2 14 12 
   1   1 8 
  10   1 12 
   6   1 13 
   9   1 13 
  10   1 12 
   6   1 23
   5   1 23
   3   1 23
  10   1 23
  10   1 23
   2   1 23
   8   1 23
   5   1 23
   5   1 23
   9   1 23
   5   1 23
   0   0 
